<?xml version = "1.0" standalone="yes"?>
<!-- This file has been generated by DOcplex version 2.23.222  -->
<CPLEXSolution version="1.0">
 <header
   problemName="CVRP"
   objectiveValue="14809.9"
  />
 <variables>
  <variable name="x_0_3" index="2" value="1.00000"/>
  <variable name="x_0_4" index="3" value="1.00000"/>
  <variable name="x_0_7" index="6" value="1.00000"/>
  <variable name="x_0_8" index="7" value="1.00000"/>
  <variable name="x_0_11" index="10" value="1.00000"/>
  <variable name="x_0_12" index="11" value="1.00000"/>
  <variable name="x_0_13" index="12" value="1.00000"/>
  <variable name="x_0_14" index="13" value="1.00000"/>
  <variable name="x_0_15" index="14" value="1.00000"/>
  <variable name="x_0_16" index="15" value="1.00000"/>
  <variable name="x_0_18" index="17" value="1.00000"/>
  <variable name="x_1_0" index="20" value="1.00000"/>
  <variable name="x_2_0" index="40" value="1.00000"/>
  <variable name="x_3_20" index="79" value="1.00000"/>
  <variable name="x_4_0" index="80" value="1.00000"/>
  <variable name="x_5_19" index="118" value="1.00000"/>
  <variable name="x_6_0" index="120" value="1.00000"/>
  <variable name="x_7_0" index="140" value="1.00000"/>
  <variable name="x_8_2" index="162" value="1.00000"/>
  <variable name="x_9_0" index="180" value="1.00000"/>
  <variable name="x_10_9" index="209" value="1.00000"/>
  <variable name="x_11_1" index="221" value="1.00000"/>
  <variable name="x_12_10" index="250" value="1.00000"/>
  <variable name="x_13_0" index="260" value="1.00000"/>
  <variable name="x_14_5" index="285" value="1.00000"/>
  <variable name="x_15_17" index="316" value="1.00000"/>
  <variable name="x_16_0" index="320" value="1.00000"/>
  <variable name="x_17_0" index="340" value="1.00000"/>
  <variable name="x_18_6" index="366" value="1.00000"/>
  <variable name="x_19_0" index="380" value="1.00000"/>
  <variable name="x_20_0" index="400" value="1.00000"/>
  <variable name="u_1" index="420" value="65.00000"/>
  <variable name="u_2" index="421" value="72.00000"/>
  <variable name="u_3" index="422" value="14.00000"/>
  <variable name="u_4" index="423" value="72.00000"/>
  <variable name="u_5" index="424" value="44.00000"/>
  <variable name="u_6" index="425" value="72.00000"/>
  <variable name="u_7" index="426" value="72.00000"/>
  <variable name="u_8" index="427" value="42.00000"/>
  <variable name="u_9" index="428" value="72.00000"/>
  <variable name="u_10" index="429" value="54.00000"/>
  <variable name="u_11" index="430" value="6.00000"/>
  <variable name="u_12" index="431" value="37.00000"/>
  <variable name="u_13" index="432" value="40.00000"/>
  <variable name="u_14" index="433" value="41.00000"/>
  <variable name="u_15" index="434" value="52.00000"/>
  <variable name="u_16" index="435" value="72.00000"/>
  <variable name="u_17" index="436" value="72.00000"/>
  <variable name="u_18" index="437" value="31.00000"/>
  <variable name="u_19" index="438" value="72.00000"/>
  <variable name="u_20" index="439" value="72.00000"/>
 </variables>
</CPLEXSolution>
